82 86 85 90 87 88 89 92 91 93 94 97 95 96 98 99 553 554 556 555 45 46 48 47 44 43 42 39 41 40 35 38 37 36 33 34 32 30 31 22 29 28 27 26 25 24 21 23 12 13 14 15 16 18 17 11 10 9 8 7 6 5 4 1 2 3 455 456 457 458 0 573 572 571 460 459 461 462 463 497 496 464 465 466 467 469 468 570 569 568 19 20 567 566 565 564 563 562 561 560 559 558 557 552 100 102 101 551 550 549 548 545 544 541 542 107 543 546 547 103 104 105 106 118 119 120 121 122 123 117 116 115 114 112 113 161 111 110 109 108 173 174 175 172 170 171 169 180 181 179 182 183 184 185 186 188 187 178 177 176 540 538 539 537 536 484 485 483 482 481 480 479 478 477 476 475 474 473 472 471 470 495 494 518 519 498 501 500 499 452 453 454 439 436 438 437 435 434 433 432 430 431 429 428 427 426 420 421 422 423 424 425 382 383 384 410 418 419 417 411 412 356 357 355 354 353 413 414 416 415 352 351 350 347 348 349 358 359 360 361 362 363 364 346 345 344 343 342 341 340 330 331 332 333 339 338 337 336 335 334 283 284 285 286 287 280 281 282 279 278 277 276 288 289 290 275 274 273 272 269 268 271 266 267 270 293 292 291 294 295 296 297 298 299 265 264 263 262 261 260 259 258 300 257 256 255 253 254 252 251 250 249 248 241 242 243 244 245 247 246 238 239 240 237 236 235 234 232 233 530 529 528 527 512 513 511 510 509 506 507 508 302 301 303 307 304 306 305 318 317 319 320 321 322 323 324 325 326 327 328 329 366 367 365 368 369 370 398 397 399 400 401 402 403 404 405 406 407 408 409 385 386 387 388 389 390 392 391 393 394 395 396 371 372 373 374 375 376 315 316 314 377 378 379 380 381 445 444 443 442 446 447 448 449 440 441 450 451 311 312 313 310 309 308 505 504 503 502 517 516 515 514 522 520 521 523 526 525 524 493 492 491 490 486 487 535 534 488 489 531 532 533 231 230 229 228 227 189 225 226 190 191 192 193 219 218 220 221 222 224 223 217 216 215 214 213 212 211 210 209 194 195 196 197 205 206 207 208 203 204 202 198 199 200 201 165 164 166 167 163 168 162 160 154 153 155 156 159 157 158 145 144 143 142 146 147 148 152 149 150 151 141 140 139 138 137 136 135 134 133 132 131 130 129 128 127 126 125 124 69 70 68 67 66 65 71 72 73 74 75 76 77 78 62 64 63 60 61 79 80 81 59 58 57 83 56 55 53 54 49 50 52 51 84